p cnf 46 140
a 26 30 0
e 1 2 3 4 5 6 7 8 9 10 11 12 13 14 15 16 17 18 19 20 21 22 23 24 25 27 28 29 31 32 33 34 35 36 37 38 39 40 41 42 43 44 45 46 0
-3 -1 0
-3 2 0
1 -2 3 0
-3 4 -5 0
3 -4 -5 0
-3 -4 5 0
3 4 5 0
7 6 0
7 1 0
-6 -1 -7 0
-9 7 0
-9 8 0
-7 -8 9 0
-6 7 -10 0
6 -7 -10 0
-6 -7 10 0
6 7 10 0
-3 -10 -11 0
3 10 -11 0
-3 10 11 0
3 -10 11 0
-9 -11 -12 0
9 11 -12 0
-9 11 12 0
9 -11 12 0
-13 -5 0
-13 -12 0
5 12 13 0
-15 7 0
-15 14 0
-7 -14 15 0
-16 -13 0
-16 -15 0
13 15 16 0
-3 -1 -17 0
3 1 -17 0
-3 1 17 0
3 -1 17 0
2 -17 -18 0
-2 17 -18 0
2 17 18 0
-2 -17 18 0
20 4 0
20 4 0
-4 -20 0
19 -20 -21 0
-19 20 -21 0
19 20 21 0
-19 -20 21 0
22 18 0
22 21 0
-18 -21 -22 0
23 -16 0
23 22 0
16 -22 -23 0
24 -14 0
24 14 0
25 24 0
25 -8 0
-24 8 -25 0
26 14 0
26 -25 0
-14 25 -26 0
-27 -20 0
-27 -24 0
20 24 27 0
28 -4 0
28 27 0
4 -27 -28 0
-29 1 0
-29 -8 0
-1 8 29 0
30 3 0
30 29 0
-3 -29 -30 0
31 20 0
31 30 0
-20 -30 -31 0
-31 11 -32 0
31 -11 -32 0
-31 -11 32 0
31 11 32 0
-33 -28 0
-33 32 0
28 -32 33 0
34 -26 0
34 33 0
26 -33 -34 0
10 35 -36 0
-10 -35 -36 0
10 -35 36 0
-10 35 36 0
10 -3 -37 0
-10 3 -37 0
10 3 37 0
-10 -3 37 0
-38 8 0
-38 -4 0
-8 4 38 0
39 37 0
39 38 0
-37 -38 -39 0
-40 -3 0
-40 30 0
3 -30 40 0
-39 -40 -41 0
39 40 -41 0
-39 40 41 0
39 -40 41 0
-42 36 0
-42 -41 0
-36 41 42 0
-34 42 -43 0
34 -42 -43 0
-34 -42 43 0
34 42 43 0
44 6 0
44 9 0
-6 -9 -44 0
43 -44 -45 0
-43 44 -45 0
43 44 45 0
-43 -44 45 0
-46 23 0
-46 45 0
-23 -45 46 0
18 19 24 14 -23 0
22 -31 -33 -44 41 0
45 30 -43 -25 0
27 13 2 -43 9 44 -7 0
7 -30 -20 0
14 35 44 21 -32 0
5 33 -7 24 0
-24 -33 36 -12 19 0
-10 45 25 -32 13 -22 0
16 -20 11 17 -28 23 0
-6 43 -13 28 -38 0
21 4 16 -43 -9 38 0
2 -19 38 -5 0
46 0
